
************************************************************
 TOWR - Trajectory Optimization for Walking Robots (v1.4)
                © Alexander W. Winkler
           https://github.com/ethz-adrl/towr
************************************************************

0.5040000000000001
8.563304471457087e-36
0.2
0
0
0.24
0
0
0
0.21
0.19
0.0
0.21
-0.19
0.0
-0.21
0.19
0.0
-0.21
-0.19
0.0
0.1
ee start pos x -> 0.21
ee start pos y -> 0.19
ee start pos z -> 0
ee start pos x -> 0.21
ee start pos y -> -0.19
ee start pos z -> 0
ee start pos x -> -0.21
ee start pos y -> 0.19
ee start pos z -> 0
ee start pos x -> -0.21
ee start pos y -> -0.19
ee start pos z -> 0
start pos x -> 0
start pos y -> 0
start pos z -> 0.24
goal pos x -> 0.504
goal pos y -> 8.5633e-36
goal pos z -> 0.2
ee start pos x -> 0.21
ee start pos y -> 0.19
ee start pos z -> 0
ee start pos x -> 0.21
ee start pos y -> -0.19
ee start pos z -> 0
ee start pos x -> -0.21
ee start pos y -> 0.19
ee start pos z -> 0
ee start pos x -> -0.21
ee start pos y -> -0.19
ee start pos z -> 0
SOLVER RUN TIME : 15

******************************************************************************
This program contains Ipopt, a library for large-scale nonlinear optimization.
 Ipopt is released as open source code under the Eclipse Public License (EPL).
         For more information visit http://projects.coin-or.org/Ipopt
******************************************************************************

This is Ipopt version 3.11.9, running with linear solver mumps.
NOTE: Other linear solvers might be more efficient (see Ipopt documentation).

Number of nonzeros in equality constraint Jacobian...:    11557
Number of nonzeros in inequality constraint Jacobian.:    20605
Number of nonzeros in Lagrangian Hessian.............:        0

Total number of variables............................:     1005
                     variables with only lower bounds:        0
                variables with lower and upper bounds:        0
                     variables with only upper bounds:        0
Total number of equality constraints.................:      706
Total number of inequality constraints...............:     1024
        inequality constraints with only lower bounds:      112
   inequality constraints with lower and upper bounds:      816
        inequality constraints with only upper bounds:       96

iter    objective    inf_pr   inf_du lg(mu)  ||d||  lg(rg) alpha_du alpha_pr  ls
   0  0.0000000e+00 9.71e+00 1.00e+00   0.0 0.00e+00    -  0.00e+00 0.00e+00   0
   1  0.0000000e+00 7.69e+00 1.06e+01  -0.3 4.57e+00    -  3.54e-01 2.08e-01f  1
   2  0.0000000e+00 6.84e+00 7.79e+01   0.6 1.05e+01    -  9.91e-01 1.11e-01f  1
   3  0.0000000e+00 3.56e-01 1.30e+02   0.8 2.44e+01    -  9.34e-01 9.67e-01f  1
   4  0.0000000e+00 8.29e-03 3.85e+01  -0.3 2.95e+00    -  7.78e-01 1.00e+00f  1
   5  0.0000000e+00 3.93e-06 5.73e-01  -5.7 1.44e-01    -  9.86e-01 1.00e+00h  1
   6  0.0000000e+00 4.50e-11 6.29e-03  -7.6 4.18e-04    -  9.90e-01 1.00e+00h  1
   7  0.0000000e+00 2.00e-05 1.10e-04  -5.5 2.43e-01    -  9.97e-01 1.00e+00h  1

Number of Iterations....: 7

                                   (scaled)                 (unscaled)
Objective...............:   0.0000000000000000e+00    0.0000000000000000e+00
Dual infeasibility......:   1.0991774391100774e-04    1.0991774391100774e-04
Constraint violation....:   2.0001565001370736e-05    2.0001565001370736e-05
Complementarity.........:   5.9233706377036481e-06    5.9233706377036481e-06
Overall NLP error.......:   1.0991774391100774e-04    1.0991774391100774e-04


Number of objective function evaluations             = 8
Number of objective gradient evaluations             = 8
Number of equality constraint evaluations            = 8
Number of inequality constraint evaluations          = 8
Number of equality constraint Jacobian evaluations   = 8
Number of inequality constraint Jacobian evaluations = 8
Number of Lagrangian Hessian evaluations             = 0
Total CPU secs in IPOPT (w/o function evaluations)   =      0.319
Total CPU secs in NLP function evaluations           =      0.451

EXIT: Optimal Solution Found.
status -> 0

************************************************************
    IFOPT - Interface to Nonlinear Optimizers (v2.0)
                © Alexander W. Winkler
           https://github.com/ethz-adrl/ifopt
************************************************************
Legend:
c - number of variables, constraints or cost terms
i - indices of this set in overall problem
v - number of [violated variable- or constraint-bounds] or [cost term value]

                                   c             i             v 
variable-sets:
   base-lin                       306        0....305[0m           0[0m
   base-ang                       306      306....611[0m           0[0m
   ee-motion_0                     35      612....646[0m           0[0m
   ee-motion_1                     35      647....681[0m           0[0m
   ee-motion_2                     35      682....716[0m           0[0m
   ee-motion_3                     35      717....751[0m           0[0m
   ee-force_0                      72      752....823[0m           0[0m
   ee-force_1                      72      824....895[0m           0[0m
   ee-force_2                      72      896....967[0m           0[0m
   ee-force_3                      72      968...1039[0m           0[0m

constraint-sets:
   terrain-ee-motion_0             13        0.....12[0m           0[0m
   terrain-ee-motion_1             13       13.....25[0m           0[0m
   terrain-ee-motion_2             13       26.....38[0m           0[0m
   terrain-ee-motion_3             13       39.....51[0m           0[0m
   dynamic                        312       52....363[0m           0[0m
   splineacc-base-lin             147      364....510[0m           0[0m
   splineacc-base-ang             147      511....657[0m           0[0m
   rangeofmotion-0                192      658....849[0m           0[0m
   rangeofmotion-1                192      850...1041[0m           0[0m
   rangeofmotion-2                192     1042...1233[0m           0[0m
   rangeofmotion-3                192     1234...1425[0m           0[0m
   force-ee-force_0                60     1426...1485[0m           0[0m
   force-ee-force_1                60     1486...1545[0m           0[0m
   force-ee-force_2                60     1546...1605[0m           0[0m
   force-ee-force_3                60     1606...1665[0m           0[0m
   swing-ee-motion_0               16     1666...1681[0m           0[0m
   swing-ee-motion_1               16     1682...1697[0m           0[0m
   swing-ee-motion_2               16     1698...1713[0m           0[0m
   swing-ee-motion_3               16     1714...1729[0m           0[0m

cost-terms:


************************************************************
 TOWR - Trajectory Optimization for Walking Robots (v1.4)
                © Alexander W. Winkler
           https://github.com/ethz-adrl/towr
************************************************************

0.8819999999999999
0.0
0.2
0.285073
0.0218747
0.238055
-0.0625009
-0.00684425
-0.0697245
0.508745
0.188777
0
0.520544
-0.198425
0
0.0575228
0.230348
0
0.0787725
-0.135581
0
3.757
s_vel
0.074034
0.1
-t
3.757
ee start pos x -> 0.508745
ee start pos y -> 0.188777
ee start pos z -> 0
ee start pos x -> 0.520544
ee start pos y -> -0.198425
ee start pos z -> 0
ee start pos x -> 0.0575228
ee start pos y -> 0.230348
ee start pos z -> 0
ee start pos x -> 0.0787725
ee start pos y -> -0.135581
ee start pos z -> 0
start pos x -> 0.285073
start pos y -> 0.0218747
start pos z -> 0.238055
goal pos x -> 0.882
goal pos y -> 0
goal pos z -> 0.2
ee start pos x -> 0.508745
ee start pos y -> 0.188777
ee start pos z -> 0
ee start pos x -> 0.520544
ee start pos y -> -0.198425
ee start pos z -> 0
ee start pos x -> 0.0575228
ee start pos y -> 0.230348
ee start pos z -> 0
ee start pos x -> 0.0787725
ee start pos y -> -0.135581
ee start pos z -> 0
SOLVER RUN TIME : 15

******************************************************************************
This program contains Ipopt, a library for large-scale nonlinear optimization.
 Ipopt is released as open source code under the Eclipse Public License (EPL).
         For more information visit http://projects.coin-or.org/Ipopt
******************************************************************************

This is Ipopt version 3.11.9, running with linear solver mumps.
NOTE: Other linear solvers might be more efficient (see Ipopt documentation).

Number of nonzeros in equality constraint Jacobian...:    11557
Number of nonzeros in inequality constraint Jacobian.:    20605
Number of nonzeros in Lagrangian Hessian.............:        0

Total number of variables............................:     1005
                     variables with only lower bounds:        0
                variables with lower and upper bounds:        0
                     variables with only upper bounds:        0
Total number of equality constraints.................:      706
Total number of inequality constraints...............:     1024
        inequality constraints with only lower bounds:      112
   inequality constraints with lower and upper bounds:      816
        inequality constraints with only upper bounds:       96

iter    objective    inf_pr   inf_du lg(mu)  ||d||  lg(rg) alpha_du alpha_pr  ls
   0  0.0000000e+00 9.71e+00 1.00e+00   0.0 0.00e+00    -  0.00e+00 0.00e+00   0
   1  0.0000000e+00 9.08e+00 8.09e+01   0.3 5.45e+00    -  3.83e-01 6.52e-02f  1
   2  0.0000000e+00 5.98e+00 1.42e+02   0.6 6.82e+00    -  9.95e-01 3.41e-01f  1
   3  0.0000000e+00 3.57e-01 2.33e+02   0.6 6.05e+00    -  7.05e-01 1.00e+00f  1
   4  0.0000000e+00 8.79e-03 2.06e+01   0.4 1.17e+00    -  9.97e-01 1.00e+00f  1
   5  0.0000000e+00 1.56e-05 3.10e+00  -1.5 1.26e-01    -  9.88e-01 1.00e+00h  1
   6  0.0000000e+00 2.20e-06 7.04e-03  -3.1 3.23e-02    -  9.98e-01 1.00e+00h  1
   7  0.0000000e+00 1.23e-10 2.94e-04  -9.0 3.28e-06    -  9.93e-01 1.00e+00h  1

Number of Iterations....: 7

                                   (scaled)                 (unscaled)
Objective...............:   0.0000000000000000e+00    0.0000000000000000e+00
Dual infeasibility......:   2.9402341060080154e-04    2.9402341060080154e-04
Constraint violation....:   4.5596562775107727e-11    1.2277112659830891e-10
Complementarity.........:   8.4851511156275789e-06    8.4851511156275789e-06
Overall NLP error.......:   2.9402341060080154e-04    2.9402341060080154e-04


Number of objective function evaluations             = 8
Number of objective gradient evaluations             = 8
Number of equality constraint evaluations            = 8
Number of inequality constraint evaluations          = 8
Number of equality constraint Jacobian evaluations   = 8
Number of inequality constraint Jacobian evaluations = 8
Number of Lagrangian Hessian evaluations             = 0
Total CPU secs in IPOPT (w/o function evaluations)   =      0.316
Total CPU secs in NLP function evaluations           =      0.463

EXIT: Optimal Solution Found.
status -> 0

************************************************************
    IFOPT - Interface to Nonlinear Optimizers (v2.0)
                © Alexander W. Winkler
           https://github.com/ethz-adrl/ifopt
************************************************************
Legend:
c - number of variables, constraints or cost terms
i - indices of this set in overall problem
v - number of [violated variable- or constraint-bounds] or [cost term value]

                                   c             i             v 
variable-sets:
   base-lin                       306        0....305[0m           0[0m
   base-ang                       306      306....611[0m           0[0m
   ee-motion_0                     35      612....646[0m           0[0m
   ee-motion_1                     35      647....681[0m           0[0m
   ee-motion_2                     35      682....716[0m           0[0m
   ee-motion_3                     35      717....751[0m           0[0m
   ee-force_0                      72      752....823[0m           0[0m
   ee-force_1                      72      824....895[0m           0[0m
   ee-force_2                      72      896....967[0m           0[0m
   ee-force_3                      72      968...1039[0m           0[0m

constraint-sets:
   terrain-ee-motion_0             13        0.....12[0m           0[0m
   terrain-ee-motion_1             13       13.....25[0m           0[0m
   terrain-ee-motion_2             13       26.....38[0m           0[0m
   terrain-ee-motion_3             13       39.....51[0m           0[0m
   dynamic                        312       52....363[0m           0[0m
   splineacc-base-lin             147      364....510[0m           0[0m
   splineacc-base-ang             147      511....657[0m           0[0m
   rangeofmotion-0                192      658....849[0m           0[0m
   rangeofmotion-1                192      850...1041[0m           0[0m
   rangeofmotion-2                192     1042...1233[0m           0[0m
   rangeofmotion-3                192     1234...1425[0m           0[0m
   force-ee-force_0                60     1426...1485[0m           0[0m
   force-ee-force_1                60     1486...1545[0m           0[0m
   force-ee-force_2                60     1546...1605[0m           0[0m
   force-ee-force_3                60     1606...1665[0m           0[0m
   swing-ee-motion_0               16     1666...1681[0m           0[0m
   swing-ee-motion_1               16     1682...1697[0m           0[0m
   swing-ee-motion_2               16     1698...1713[0m           0[0m
   swing-ee-motion_3               16     1714...1729[0m           0[0m

cost-terms:


************************************************************
 TOWR - Trajectory Optimization for Walking Robots (v1.4)
                © Alexander W. Winkler
           https://github.com/ethz-adrl/towr
************************************************************

1.1341008
0.0
0.2
0.549345
0.0322487
0.234694
-0.00355241
0.00638646
-0.0676026
0.766998
0.176536
0
0.786484
-0.205182
0
0.319712
0.22995
0
0.339081
-0.156963
0
6.282
s_vel
0.0825643
0.1
-t
6.282
ee start pos x -> 0.766998
ee start pos y -> 0.176536
ee start pos z -> 0
ee start pos x -> 0.786484
ee start pos y -> -0.205182
ee start pos z -> 0
ee start pos x -> 0.319712
ee start pos y -> 0.22995
ee start pos z -> 0
ee start pos x -> 0.339081
ee start pos y -> -0.156963
ee start pos z -> 0
start pos x -> 0.549345
start pos y -> 0.0322487
start pos z -> 0.234694
goal pos x -> 1.1341
goal pos y -> 0
goal pos z -> 0.2
ee start pos x -> 0.766998
ee start pos y -> 0.176536
ee start pos z -> 0
ee start pos x -> 0.786484
ee start pos y -> -0.205182
ee start pos z -> 0
ee start pos x -> 0.319712
ee start pos y -> 0.22995
ee start pos z -> 0
ee start pos x -> 0.339081
ee start pos y -> -0.156963
ee start pos z -> 0
SOLVER RUN TIME : 15

******************************************************************************
This program contains Ipopt, a library for large-scale nonlinear optimization.
 Ipopt is released as open source code under the Eclipse Public License (EPL).
         For more information visit http://projects.coin-or.org/Ipopt
******************************************************************************

This is Ipopt version 3.11.9, running with linear solver mumps.
NOTE: Other linear solvers might be more efficient (see Ipopt documentation).

Number of nonzeros in equality constraint Jacobian...:    11557
Number of nonzeros in inequality constraint Jacobian.:    20605
Number of nonzeros in Lagrangian Hessian.............:        0

Total number of variables............................:     1005
                     variables with only lower bounds:        0
                variables with lower and upper bounds:        0
                     variables with only upper bounds:        0
Total number of equality constraints.................:      706
Total number of inequality constraints...............:     1024
        inequality constraints with only lower bounds:      112
   inequality constraints with lower and upper bounds:      816
        inequality constraints with only upper bounds:       96

iter    objective    inf_pr   inf_du lg(mu)  ||d||  lg(rg) alpha_du alpha_pr  ls
   0  0.0000000e+00 9.71e+00 1.00e+00   0.0 0.00e+00    -  0.00e+00 0.00e+00   0
   1  0.0000000e+00 9.10e+00 6.27e+01   0.2 5.32e+00    -  4.12e-01 6.31e-02f  1
   2  0.0000000e+00 4.90e+00 7.17e+01   0.6 6.76e+00    -  9.95e-01 4.62e-01f  1
   3  0.0000000e+00 2.30e-01 1.47e+02   0.4 4.58e+00    -  7.25e-01 1.00e+00f  1
   4  0.0000000e+00 2.04e-03 4.11e+00   0.1 6.52e-01    -  9.99e-01 1.00e+00f  1
   5  0.0000000e+00 1.27e-06 1.13e+00  -5.9 1.64e-02    -  9.86e-01 1.00e+00h  1
   6  0.0000000e+00 6.37e-06 3.50e-04  -3.4 4.04e-02    -  1.00e+00 1.00e+00h  1
   7  0.0000000e+00 2.28e-04 3.01e-03  -3.5 1.51e-01    -  1.00e+00 1.00e+00h  1
   8  0.0000000e+00 1.04e-08 4.86e-04  -3.5 5.18e-04    -  1.00e+00 1.00e+00h  1
   9  0.0000000e+00 3.94e-11 9.35e-06  -9.5 9.41e-07    -  1.00e+00 1.00e+00h  1

Number of Iterations....: 9

                                   (scaled)                 (unscaled)
Objective...............:   0.0000000000000000e+00    0.0000000000000000e+00
Dual infeasibility......:   9.3476270486048298e-06    9.3476270486048298e-06
Constraint violation....:   1.6633648608541071e-11    3.9392489270539954e-11
Complementarity.........:   1.3979298133410336e-07    1.3979298133410336e-07
Overall NLP error.......:   9.3476270486048298e-06    9.3476270486048298e-06


Number of objective function evaluations             = 10
Number of objective gradient evaluations             = 10
Number of equality constraint evaluations            = 10
Number of inequality constraint evaluations          = 10
Number of equality constraint Jacobian evaluations   = 10
Number of inequality constraint Jacobian evaluations = 10
Number of Lagrangian Hessian evaluations             = 0
Total CPU secs in IPOPT (w/o function evaluations)   =      0.382
Total CPU secs in NLP function evaluations           =      0.609

EXIT: Optimal Solution Found.
status -> 0

************************************************************
    IFOPT - Interface to Nonlinear Optimizers (v2.0)
                © Alexander W. Winkler
           https://github.com/ethz-adrl/ifopt
************************************************************
Legend:
c - number of variables, constraints or cost terms
i - indices of this set in overall problem
v - number of [violated variable- or constraint-bounds] or [cost term value]

                                   c             i             v 
variable-sets:
   base-lin                       306        0....305[0m           0[0m
   base-ang                       306      306....611[0m           0[0m
   ee-motion_0                     35      612....646[0m           0[0m
   ee-motion_1                     35      647....681[0m           0[0m
   ee-motion_2                     35      682....716[0m           0[0m
   ee-motion_3                     35      717....751[0m           0[0m
   ee-force_0                      72      752....823[0m           0[0m
   ee-force_1                      72      824....895[0m           0[0m
   ee-force_2                      72      896....967[0m           0[0m
   ee-force_3                      72      968...1039[0m           0[0m

constraint-sets:
   terrain-ee-motion_0             13        0.....12[0m           0[0m
   terrain-ee-motion_1             13       13.....25[0m           0[0m
   terrain-ee-motion_2             13       26.....38[0m           0[0m
   terrain-ee-motion_3             13       39.....51[0m           0[0m
   dynamic                        312       52....363[0m           0[0m
   splineacc-base-lin             147      364....510[0m           0[0m
   splineacc-base-ang             147      511....657[0m           0[0m
   rangeofmotion-0                192      658....849[0m           0[0m
   rangeofmotion-1                192      850...1041[0m           0[0m
   rangeofmotion-2                192     1042...1233[0m           0[0m
   rangeofmotion-3                192     1234...1425[0m           0[0m
   force-ee-force_0                60     1426...1485[0m           0[0m
   force-ee-force_1                60     1486...1545[0m           0[0m
   force-ee-force_2                60     1546...1605[0m           0[0m
   force-ee-force_3                60     1606...1665[0m           0[0m
   swing-ee-motion_0               16     1666...1681[0m           0[0m
   swing-ee-motion_1               16     1682...1697[0m           0[0m
   swing-ee-motion_2               16     1698...1713[0m           0[0m
   swing-ee-motion_3               16     1714...1729[0m           0[0m

cost-terms:


************************************************************
 TOWR - Trajectory Optimization for Walking Robots (v1.4)
                © Alexander W. Winkler
           https://github.com/ethz-adrl/towr
************************************************************

1.3863024000000002
0.0
0.2
0.805965
0.0254
0.235241
0.00406281
0.0120322
-0.0468879
1.0208
0.175006
0
1.04457
-0.207661
0
0.573866
0.21846
0
0.599006
-0.167507
0
8.809
s_vel
0.0824809
0.1
-t
8.809
ee start pos x -> 1.0208
ee start pos y -> 0.175006
ee start pos z -> 0
ee start pos x -> 1.04457
ee start pos y -> -0.207661
ee start pos z -> 0
ee start pos x -> 0.573866
ee start pos y -> 0.21846
ee start pos z -> 0
ee start pos x -> 0.599006
ee start pos y -> -0.167507
ee start pos z -> 0
start pos x -> 0.805965
start pos y -> 0.0254
start pos z -> 0.235241
goal pos x -> 1.3863
goal pos y -> 0
goal pos z -> 0.2
ee start pos x -> 1.0208
ee start pos y -> 0.175006
ee start pos z -> 0
ee start pos x -> 1.04457
ee start pos y -> -0.207661
ee start pos z -> 0
ee start pos x -> 0.573866
ee start pos y -> 0.21846
ee start pos z -> 0
ee start pos x -> 0.599006
ee start pos y -> -0.167507
ee start pos z -> 0
SOLVER RUN TIME : 15

******************************************************************************
This program contains Ipopt, a library for large-scale nonlinear optimization.
 Ipopt is released as open source code under the Eclipse Public License (EPL).
         For more information visit http://projects.coin-or.org/Ipopt
******************************************************************************

This is Ipopt version 3.11.9, running with linear solver mumps.
NOTE: Other linear solvers might be more efficient (see Ipopt documentation).

Number of nonzeros in equality constraint Jacobian...:    11557
Number of nonzeros in inequality constraint Jacobian.:    20605
Number of nonzeros in Lagrangian Hessian.............:        0

Total number of variables............................:     1005
                     variables with only lower bounds:        0
                variables with lower and upper bounds:        0
                     variables with only upper bounds:        0
Total number of equality constraints.................:      706
Total number of inequality constraints...............:     1024
        inequality constraints with only lower bounds:      112
   inequality constraints with lower and upper bounds:      816
        inequality constraints with only upper bounds:       96

iter    objective    inf_pr   inf_du lg(mu)  ||d||  lg(rg) alpha_du alpha_pr  ls
   0  0.0000000e+00 9.71e+00 1.00e+00   0.0 0.00e+00    -  0.00e+00 0.00e+00   0
   1  0.0000000e+00 9.06e+00 6.05e+01   0.2 5.25e+00    -  4.14e-01 6.64e-02f  1
   2  0.0000000e+00 4.87e+00 6.97e+01   0.5 6.71e+00    -  9.95e-01 4.63e-01f  1
   3  0.0000000e+00 2.24e-01 1.42e+02   0.4 4.55e+00    -  7.28e-01 1.00e+00f  1
   4  0.0000000e+00 1.85e-03 3.59e+00   0.1 6.10e-01    -  1.00e+00 1.00e+00f  1
   5  0.0000000e+00 1.12e-06 9.95e-01  -5.9 1.52e-02    -  9.87e-01 1.00e+00h  1
   6  0.0000000e+00 6.20e-06 2.73e-04  -3.5 3.84e-02    -  1.00e+00 1.00e+00h  1
   7  0.0000000e+00 2.00e-04 2.73e-03  -3.6 1.33e-01    -  1.00e+00 1.00e+00h  1
   8  0.0000000e+00 8.99e-09 4.43e-04  -3.6 4.74e-04    -  1.00e+00 1.00e+00h  1
   9  0.0000000e+00 3.46e-11 7.68e-06  -9.6 8.51e-07    -  1.00e+00 1.00e+00h  1

Number of Iterations....: 9

                                   (scaled)                 (unscaled)
Objective...............:   0.0000000000000000e+00    0.0000000000000000e+00
Dual infeasibility......:   7.6761461377405034e-06    7.6761461377405034e-06
Constraint violation....:   1.4570240468160304e-11    3.4635405654626084e-11
Complementarity.........:   1.1363030433805816e-07    1.1363030433805816e-07
Overall NLP error.......:   7.6761461377405034e-06    7.6761461377405034e-06


Number of objective function evaluations             = 10
Number of objective gradient evaluations             = 10
Number of equality constraint evaluations            = 10
Number of inequality constraint evaluations          = 10
Number of equality constraint Jacobian evaluations   = 10
Number of inequality constraint Jacobian evaluations = 10
Number of Lagrangian Hessian evaluations             = 0
Total CPU secs in IPOPT (w/o function evaluations)   =      0.364
Total CPU secs in NLP function evaluations           =      0.577

EXIT: Optimal Solution Found.
status -> 0

************************************************************
    IFOPT - Interface to Nonlinear Optimizers (v2.0)
                © Alexander W. Winkler
           https://github.com/ethz-adrl/ifopt
************************************************************
Legend:
c - number of variables, constraints or cost terms
i - indices of this set in overall problem
v - number of [violated variable- or constraint-bounds] or [cost term value]

                                   c             i             v 
variable-sets:
   base-lin                       306        0....305[0m           0[0m
   base-ang                       306      306....611[0m           0[0m
   ee-motion_0                     35      612....646[0m           0[0m
   ee-motion_1                     35      647....681[0m           0[0m
   ee-motion_2                     35      682....716[0m           0[0m
   ee-motion_3                     35      717....751[0m           0[0m
   ee-force_0                      72      752....823[0m           0[0m
   ee-force_1                      72      824....895[0m           0[0m
   ee-force_2                      72      896....967[0m           0[0m
   ee-force_3                      72      968...1039[0m           0[0m

constraint-sets:
   terrain-ee-motion_0             13        0.....12[0m           0[0m
   terrain-ee-motion_1             13       13.....25[0m           0[0m
   terrain-ee-motion_2             13       26.....38[0m           0[0m
   terrain-ee-motion_3             13       39.....51[0m           0[0m
   dynamic                        312       52....363[0m           0[0m
   splineacc-base-lin             147      364....510[0m           0[0m
   splineacc-base-ang             147      511....657[0m           0[0m
   rangeofmotion-0                192      658....849[0m           0[0m
   rangeofmotion-1                192      850...1041[0m           0[0m
   rangeofmotion-2                192     1042...1233[0m           0[0m
   rangeofmotion-3                192     1234...1425[0m           0[0m
   force-ee-force_0                60     1426...1485[0m           0[0m
   force-ee-force_1                60     1486...1545[0m           0[0m
   force-ee-force_2                60     1546...1605[0m           0[0m
   force-ee-force_3                60     1606...1665[0m           0[0m
   swing-ee-motion_0               16     1666...1681[0m           0[0m
   swing-ee-motion_1               16     1682...1697[0m           0[0m
   swing-ee-motion_2               16     1698...1713[0m           0[0m
   swing-ee-motion_3               16     1714...1729[0m           0[0m

cost-terms:

